c Lingeling SAT Solver
c 
c Version ala b02aa1a04343558c4252b5f4a723be021964f652
c 
c Copyright (C) 2010-2012 Armin Biere JKU Linz Austria.
c All rights reserved.
c 
c released Sat Oct 13 14:05:26 CEST 2012
c compiled Sat Feb 16 02:48:12 EST 2013
c 
c gcc (Debian 4.4.5-8) 4.4.5
c -Wall -O3 -DNLGLOG -DNDEBUG -DNCHKSOL -DNLGLPICOSAT 
c Linux greencar2 2.6.32-5-amd64 x86_64
c 
c reading input file p58.cnf
c no embedded options
c found 'p cnf 231328 717524' header
c read 231328 variables, 717524 clauses, 1493140 literals in 0.0 seconds
c
c feature vars 231328
c feature lits.total 1493140
c feature lits.pos 795311
c feature lits.neg 697829
c feature clauses.total 717524
c feature clauses.unit 86188
c feature clauses.bin 505456
c feature clauses.trn 124480
c feature clauses.lrg 1400
c feature cog.val.min 1
c feature cog.val.avg 103075
c feature cog.val.max 222619
c feature cog.var.min 1
c feature cog.var.avg 115665
c feature cog.var.max 231327
c
c
c --abstime=0
c --acts=2
c --actavgmax=120
c --actstdmin=20
c --actstdmax=80
c --agile=23
c --bias=2
c --block=1
c --blkrtc=0
c --blkclslim=2000
c --blkocclim=2000
c --blkmaxeff=2147483647
c --blkmineff=10000000
c --blkreleff=20
c --card=0
c --cce=3
c --ccemaxeff=100000000
c --ccemineff=5000000
c --ccereleff=3
c --check=0
c --cgrclsr=1
c --cgrmaxority=20
c --cgrmaxeff=8000000
c --cgrmineff=200000
c --cgreleff=1
c --cgrexteq=1
c --cgrextand=1
c --cgrextunits=1
c --cgrextite=1
c --cgrextxor=1
c --cliff=1
c --cliffreleff=8
c --cliffmineff=10000000
c --cliffmaxeff=100000000
c --compact=0
c --decompose=1
c --defragint=10000000
c --defragfree=50
c --elim=1
c --elmrtc=0
c --elmblk=1
c --elmclslim=1000
c --elmocclim=1000
c --elmaxeff=100000000
c --elmineff=5000000
c --elmreleff=10
c --sleeponabort=0
c --exitonabort=0
c --flipping=1
c --flipint=2
c --flipdur=50
c --fliptop=1
c --force=0
c --gauss=1
c --gaussextrall=1
c --gaussmaxor=20
c --gaussexptrn=1
c --gaussmaxeff=50000000
c --gaussmineff=2000000
c --gaussreleff=2
c --gluescale=2
c --gluekeep=0
c --inprocessing=1
c --cintinc=10000
c --irrlim=20
c --lift=1
c --lftmaxeff=20000000
c --lftmineff=500000
c --lftreleff=6
c --lhbr=1
c --lkhd=1
c --clim=-1
c --mocint=1000
c --move=2
c --log=-1
c --otfs=1
c --phase=0
c --phaseneginit=0
c --plain=0
c --probe=1
c --prbasicmaxeff=100000000
c --prbasicmineff=1000000
c --prbasicreleff=10
c --prbasic=1
c --prbasicroundlim=9
c --queuemergelim=10000
c --queuefactor=833
c --queueinc=20
c --rmincpen=4
c --seed=0
c --smallirr=90
c --smallve=1
c --smallvevars=12
c --randec=1
c --randecint=1000
c --redfixed=0
c --redlbound=0
c --redlexpfac=10
c --redldoutfac=0
c --redloutinc=10000
c --redlinit=1000
c --redlinc=1000
c --redinoutinc=100
c --redlmininc=10
c --redlmaxinc=200
c --redlminrel=10
c --redlmaxrel=300
c --redlminabs=500
c --redlmaxabs=1000000
c --reduce=1
c --restart=2
c --restartint=5
c --rstinoutinc=110
c --simplify=1
c --simpdelay=100
c --simpen=4
c --sizepen=1000000
c --sizemaxpen=3
c --sortlits=0
c --syncint=111111
c --termint=122222
c --ternres=1
c --ternresrtc=0
c --trnrmineff=4000000
c --trnrmaxeff=40000000
c --trnreleff=10
c --transred=1
c --trdmineff=100000
c --trdmaxeff=2000000
c --trdreleff=10
c --unhide=1
c --unhdextstamp=1
c --unhdhbr=0
c --unhdmaxeff=20000000
c --unhdmineff=1000000
c --unhdreleff=4
c --unhdlnpr=3
c --unhdroundlim=5
c --verbose=1
c --witness=1
c [limits] no conflict limit
c [limits] simplification delayed by 100 to 100 conflicts
c 
c  seconds         irredundant          redundant clauses agility   height
c          variables clauses conflicts large binary ternary    glue         MB
c 
c *    0.0  127880   536674         0       0      0     0  64  0.0   0.0   42
c [cut-width] 179011, max 277203, min4 119480 at 75%, min10 33947 at 89%
c [decision-order] bias 1, old 1
c [queue-schedule-all-variables]
c s    0.0  127880   536674         0       0      0     0  64  0.0   0.0   42
c [simplification-1] limit hit at 100 conflicts
c [simplification-1] simplification penalty of 4
c [ternres-1] limit 4000000 with penalty 0 = 0 + 0
c [ternres-1] all 127880 free variables schedulable
c [ternres-1] 0 ternary resolvents (0 bin, 0 trn)
c [ternres-1] 26118 variables remain 20% (101762 retained)
c [gauss-1] limit 2000000 penalty 0 = 0 + 0
c [gauss-1] extracted 165710 xors of average arity 2.0
c [gauss-1] connected 331423 occurrences of 105677 variables (average 3.1)
c [gauss-1] limit 2000000 penalty 0 = 0 + 0
c d    1.5   58980   267872       100     100      0     0  80  7.6 258.2   21
c [gauss-1] exported 0 unary, 3 binary and 0 ternary equations
c G    1.5   58980   267872       100     100      0     0  80  7.6 258.2   21
c [basicprobe-1] limit 1000000 penalty 0 = 0 + 0
c [basicprobe-1-0] 4086 probes remain 7% after last round
c [basicprobe-1-0] removed 0 variables, found 1320 hbrs
c p    1.7   58980   267872       100     100   1320     0  80  7.6 258.2   26
c [cgrclsr-1] limit 200000 penalty 0 = 0 + 0
c [cgrclsr-1] all 58980 free variables schedulable
c [cgrclsr-1] fully completed congruence closure
c [lift-1] limit 500000 with penalty 0 = 0 + 0
c [lift-1] using 58980 probes 100%
c [lift-1] 58941 variables remain 100% (38 retained)
c [lift-1] removed 1 variables
c ^    2.1   58979   267867       100     100   1762     0  80  7.6 258.2   21
c [cliff-1] limit of 10000000 steps penalty 0 = 0 + 0
c [cliff-1] failed 0, lifted 0
c [unhide-1] limit 1000000 with penalty 0 = 0 + 0
c [unhide-1-1] 0 units, 0 failed, 22394 tauts, 0 hbrs, 69 literals
c u    2.9   58979   245473       100     100  14561     0  80  7.6 258.2   26
c [transred-1] limit 100000 with penalty 0 = 0 + 0
c t    2.9   58979   245473       100     100  14559     0  80  7.6 258.2   26
c [block-1] scheduling all variables this time
c [block-1] scheduled 58979 variables 100%
c [block-1] limit of 10000000 steps penalty 0 = 0 + 0
c [block-1] fully completed blocked clause elimination
c [block-1] transition to [ all 0 rem 0 ] state
c [block-1] eliminated 4600 blocked clauses
c k    3.2   58979   240873       100     100  14559  4600  80  7.6 258.2   21
c [cce-1] scheduling all variables this time
c [cce-1] limit of 10000000 steps penalty 0 = 0 + 0
c [cce-1] incomplete covered clause elimination 53757 not tried 91%
c [cce-1] transition to [ all 1 rem 1 ] state
c [cce-1] eliminated 54 covered clauses
c E    3.9   58979   240819       100     100  25398  4600  80  7.6 258.2   21
c [elim-1] scheduling all variables this time
c [elim-1] scheduled 58979 variables 100%
c [elim-1] limit of 5000000 steps penalty 0 = 0 + 0
c [elim-1] incomplete variable elimination 44166 not tried 75%
c [elim-1] transition to [ all 1 rem 1 ] state
c [elim-1] eliminated 6245 = 11% variables out of 58979
c e    5.4   52734   237065       100      52  11596   558  80  7.6 258.2   21
c [phase-1] phase bias: 1185 positive 18%, 5521 negative 82%
c [simplification-1] removed 75146 variables 58%
c [simplification-1] limit increments divided by 30
c [simplification-1] arithmetic increase of conflict limit interval by 333
c [simplification-1] new irredundant limit 2347438
c [simplification-1] new conflict limit 433
c [simplification-1] simplification penalty reduced to 3
c [simplification-2] limit hit at 433 conflicts
c [simplification-2] simplification penalty of 3
c [ternres-2] limit 2000000 with penalty 1 = 1 + 0
c [ternres-2] 10774 schedulable variables 20%
c [ternres-2] 4 ternary resolvents (0 bin, 4 trn)
c [ternres-2] fully completed ternary resolution
c T    5.6   52734   237065       433     373  11596   574  34 13.9 538.5   26
c [gauss-2] limit 2000000 penalty 0 = 0 + 0
c [gauss-2] extracted 895 xors of average arity 3.0
c [gauss-2] connected 2685 occurrences of 1583 variables (average 1.7)
c [gauss-2] limit 2000000 penalty 0 = 0 + 0
c [gauss-2] fully completed
c [gauss-2] exported 0 unary, 0 binary and 0 ternary equations
c G    5.8   52734   237065       433     373  11596   574  34 13.9 538.5   21
c [basicprobe-2] limit 500000 penalty 1 = 1 + 0
c [basicprobe-2-0] 4188 probes remain 8% after last round
c [basicprobe-2-0] removed 0 variables, found 652 hbrs
c p    6.0   52734   237065       433     373  12248   574  34 13.9 538.5   26
c [cgrclsr-2] limit 100000 penalty 1 = 1 + 0
c [cgrclsr-2] all 52734 free variables schedulable
c [cgrclsr-2] fully completed congruence closure
c [lift-2] limit 500000 with penalty 0 = 0 + 0
c [lift-2] using 52696 probes 100%
c [lift-2] 52659 variables remain 100% (75 retained)
c [cliff-2] limit of 5000000 steps penalty 1 = 1 + 0
c [cliff-2] failed 0, lifted 0
c [unhide-2] limit 1000000 with penalty 0 = 0 + 0
c [unhide-2-2] 0 units, 0 failed, 2428 tauts, 0 hbrs, 422 literals
c u    6.8   52734   237058       433     373  10187   574  34 13.9 538.5   26
c [transred-3] limit 100000 with penalty 0 = 0 + 0
c t    6.8   52734   237058       433     373  10181   574  34 13.9 538.5   26
c [block-2] scheduling all variables this time
c [block-2] scheduled 52734 variables 100%
c [block-2] limit of 10000000 steps penalty 0 = 0 + 0
c [block-2] fully completed blocked clause elimination
c [block-2] transition to [ all 0 rem 0 ] state
c [block-2] eliminated 0 blocked clauses
c [cce-2] 50048 variables 95% will be scheduled this time
c [cce-2] limit of 10000000 steps penalty 0 = 0 + 0
c [cce-2] 49509 variables 94% remain to be tried next time
c [cce-2] transition to [ all 0 rem 1 ] state
c [cce-2] eliminated 379 covered clauses
c E    7.7   52734   236679       433     373  10663   574  34 13.9 538.5   21
c [elim-2] 44121 variables 84% will be scheduled this time
c [elim-2] scheduled 44121 variables 84%
c [elim-2] limit of 5000000 steps penalty 0 = 0 + 0
c [elim-2] 34032 variables 65% remain to be tried next time
c [elim-2] transition to [ all 0 rem 1 ] state
c [elim-2] eliminated 1052 = 2% variables out of 52734
c e    9.3   51682   236191       433     371   6770   574  34 13.9 538.5   21
c [phase-2] phase bias: 32 positive 97%, 1 negative 3%
c [simplification-2] removed 1052 variables 1%
c [simplification-2] no reduction of limit increments
c [simplification-2] arithmetic increase of conflict limit interval by 10000
c [simplification-2] new irredundant limit 2347438
c [simplification-2] new conflict limit 10766
c [simplification-2] simplification penalty reduced to 2
c 1    9.7   51682   236191       957     837   6789   607   4 10.7 341.9   26
c 
c  seconds         irredundant          redundant clauses agility   height
c          variables clauses conflicts large binary ternary    glue         MB
c 
c blkd: 2 bces, 4600 removed, 1407299 resolutions, 3909108 steps
c blkd: 4600 blocking literals 1%, 0 pure
c cces: 2 cces, 433 eliminated, 433 ate 100%, 0 abce 0%
c cces: 11522 probed, 0 lifted, 0 failed
c clff: 2 cliffs, 0 lifted, 0 failed
c clff: 5745 decisions, 15009363 steps
c clls: 1 sat, 0 simp, 0 freeze, 0 melt
c clls: 2210664 add, 0 assume,, 0 deref, 0 failed
c clls: 0 cassume, 0 mosat
c coll: 12 gcs, 0 rescored clauses
c cgrs: 2 count, 300014 esteps, 69652 csteps
c cgrs: 0 eqs, 0 units
c cgrs: 0 matched (0 ands 0%, 0 xors 0%, 0 ites 0%)
c cgrs: 0 simplified (0 ands 0%, 0 xors 0%, 0 ites 0%)
c cgrs: 2028 extracted (1736 ands 86%, 292 xors 14%, 0 ites 0%)
c dcps: 3 decompositions, 68900 equivalent 30%
c decs: 10685 decision, 11 random 0.103%
c decs: 1139 flipped 10.660% (in 2 phases)
c elms: 2 elims, 7297 eliminated 3%
c elms: 7297 small 100%, 0 large 0%
c elms: 25016 tried small, 7297 succeeded 29%, 17719 failed 71%
c elms: 0 subsumed, 0 strengthened, 0 blocked
c elms: 316897 copies, 219603 resolutions, 648469 ipos
c elms: 0 subchks, 0 strchks
c frcs: 0 computed, 29.2 - 70.8 average min-cut range
c gaus: 2 extractions, 166605 extracted, 2.0 size, 3 max
c gaus: exported 0 units, 3 binary and 0 ternary equations
c gaus: 0 gc, 8000042 steps, 4000021 extr 50%, 2398548 elim 30%
c glue: 10.7 avg, 3.3 scaled avg
c glue: 0 maxredglue=15 (0%)
c lift: 2 phases, 450 probed (150 level1 33%, 300 level2 67%)
c lift: 1 units, 0 equivalences, 1 implications
c hbrs: 26467 hbrs = 26467 trn 100% + 0 lrg 0%, 0 sub 0%
c lrnd: 951 clauses, 642 uips 68%, 40.8 length, 10.7 glue
c ints: 63 luby (4671 steps), 0 inout (0 steps)
c mins: 38811 learned lits, 3% minimized
c move: moved 5033, 433 binary 9%, 4600 ternary 91%
c otfs: str 30 dyn (26 red, 4 irr) 6 drv 20%, 24 rst 80%
c otfs: sub 0 dyn (0 red, 0 irr)
c phas: 2 computed, 6859 set, 1217 pos (18%), 5642 neg (82%)
c prbs: 2 basic, 1928 probed, 0 failed, 0 lifted
c prps: 6907356 props, 123 props/dec
c prps: 19% srch, 81% simp, 0% lkhd
c psns: 242824 searches, 25132 hits, 10% hit rate
c queu: 4768 new, 1989 del, 117 maximum priority
c queu: 2759 merged, 1585 collected, 2 gcs
c queu: 981 deprioritized, 27.3 lines on average
c reds: 0 count, 0 reset, 0 acts 0%, 0 exp 0%
c reds: 0 arithmetic 0%, 0 double 0%
c rmbd: 7 removed, 0 red 0%
c rsts: 11 restarts 18%, 51 skipped 82%
c rsts: 3 kept 27.3% average 74.7%
c simp: 2 count (0 ilim 0%, 0 plim 0%, 2 clim 100%)
c trnr: 2 count, 0 bin, 4 trn, 4816556 steps
c tops: 103449 fixed 45%, 0 iterations
c trds: 4 transitive reductions, 8 removed, 0 failed
c trds: 226 nodes, 298 edges, 201064 steps
c unhd: 2 count, 2 rounds, 2501161 steps
c unhd: 0 non-trivial sccs of average size 0.0
c unhd: 0 units, 0 bin, 0 trn, 0 lrg
c unhd: 0 failed, 0 stamp, 0 lits, 0 bin, 0 trn, 0 lrg
c unhd: 24822 tauts, 0 bin 0%, 0 trn 0%, 0 lrg 0%
c unhd: 24822 tauts, 24822 stamp 100%, 2428 red 10%
c unhd: 0 hbrs, 0 trn 0%, 0 lrg 0%, 0 red 0%
c unhd: 491 strd, 0 bin 0%, 2 trn 0%, 489 lrg 100%, 489 red 100%
c vars: 51682 remaining 22% and 179646 removed 78% out of 231328
c vars: 103449 fixed 45%, 7297 eliminated 3%, 68900 equivalent 30%
c vsts: 31793104 visits, 20% srch, 80% simp, 0% lkhd
c vsts: 4.8 search visits per propagation 6584.8 per conflict
c wchs: 8874670 pushed, 4240047 enlarged, 21 defrags
c 
c scaledglue  added       reduced       forcing      resolved     conflicts
c 
c all       889 100         0 100      3582 100      2052 100       192 100
c 
c  0          0   0         0   0<        0   0         0   0         0   0 
c  1         13   1         0   0        45   1        25   1         3   2 
c  2        208  23         0   0       731  20       351  17        29  15 
c  3        245  28         0   0       975  27<      510  25        52  27 
c  4        205  23<        0   0      1352  38       645  31<       62  32<
c  5        166  19         0   0       402  11       418  20        35  18 
c  6         41   5         0   0        64   2        87   4         9   5 
c  7         10   1         0   0        12   0        15   1         2   1 
c  8          0   0         0   0         0   0         0   0         0   0 
c  9          1   0         0   0         1   0         1   0         0   0 
c 10          0   0         0   0         0   0         0   0         0   0 
c 11          0   0         0   0         0   0         0   0         0   0 
c 12          0   0         0   0         0   0         0   0         0   0 
c 13          0   0         0   0         0   0         0   0         0   0 
c 14          0   0         0   0         0   0         0   0         0   0 
c 15          0   0         0   0         0   0         0   0         0   0 
c 
c avg             3.5           0.0           3.4           3.7           3.7
c std             1.3           0.0           1.1           1.2           1.2
c 
c 10685 decisions, 957 conflicts, 98.7 conflicts/sec
c 6907356 propagations, 0.7 megaprops/sec
c 9.7 seconds, 49.1 MB
c 
c    0.084   1% analysis
c    0.468   5% block
c    0.004   0% bump
c    0.000   0% card
c    1.308  13% cce
c    0.868   9% cliff
c    0.028   0% cutwidth
c    0.008   0% decide
c    0.000   0% force
c    0.924  10% gc
c    0.328   3% cgrclsr
c    0.556   6% decomp
c    0.248   3% defrag
c    3.144  32% elim
c    1.508  16% gauss
c    0.392   4% lift
c    0.024   0% mincls
c    0.080   1% phase
c    0.156   2% probe
c    0.000   0% reduce
c    0.020   0% restart
c    0.164   2% ternres
c    0.024   0% transred
c    0.348   4% unhide
c ==================================
c    0.036   0% preprocessing     0%
c    9.233  95% inprocessing    100%
c ==================================
c    9.269  96% simplifying
c    0.000   0% lookahead
c    0.416   4% search
c ==================================
c    9.701 100% all
c
s SATISFIABLE
